/* Objective function */
max: ;

/* Constraints */
R1: +x5 <= 0;
R2: +x3 <= 0;
R3: +x4 <= 0;
R4: +x2 <= 0;
R5: +x1 <= 0;
0 x1 <= 1;
R7: +x2 >= 0;
R8: +x1 >= 0;
R9: +x5 >= 0;
R10: +x3 >= 0;
R11: +x4 >= 0;
R12: +x1 >= 0;
R13: +x2 >= 0;
R14: +x3 >= 0;
R15: +x4 >= 0;
R16: +x5 >= 0;
